NAME : random611100
COMMENT: random generated with id 611100
TYPE : TSP
DIMENSION : 20
EDGE_WEIGHT_TYPE : EUC_2D
NODE_COORD_SECTION
1 11.037667 2.535538
2 1.207321 19.819080
3 18.484562 16.876234
4 17.667772 15.667636
5 9.819263 16.247676
6 14.157319 15.979707
7 2.281007 7.935532
8 12.678795 14.737429
9 3.104708 10.575137
10 13.431881 2.362428
11 9.138019 18.791950
12 16.033661 7.045323
13 13.333890 8.154363
14 13.315802 17.972191
15 5.869149 15.741064
16 4.375744 16.906816
17 18.276602 5.583064
18 16.725896 16.761164
19 2.459299 14.393668
20 12.428800 12.278562
EOF
